<number of tasks>
50

<cycle time>
1000

<order strength>
0.595


<task times>
1 125
2 461
3 28
4 188
5 123
6 484
7 196
8 257
9 165
10 259
11 32
12 216
13 168
14 131
15 43
16 243
17 195
18 547
19 272
20 322
21 477
22 165
23 34
24 76
25 59
26 489
27 177
28 122
29 35
30 80
31 163
32 374
33 410
34 622
35 189
36 85
37 431
38 114
39 175
40 549
41 212
42 199
43 190
44 571
45 296
46 575
47 106
48 252
49 145
50 59

<precedence relations>
1,4
2,6
3,4
3,5
4,7
4,8
4,9
5,8
5,9
5,24
6,7
6,9
6,10
7,11
7,12
7,13
8,14
8,29
8,35
9,12
9,15
9,30
10,11
10,12
10,13
11,14
11,15
11,16
11,17
11,18
11,19
12,18
12,34
13,17
13,20
13,42
13,43
14,21
15,21
15,22
16,21
16,22
16,23
16,24
18,32
18,33
19,23
19,48
20,33
20,37
20,40
21,25
21,26
21,28
22,25
22,27
22,29
22,43
23,37
23,45
24,25
24,28
24,30
25,31
25,33
25,34
26,32
27,35
27,38
28,32
28,33
28,38
28,39
29,31
29,33
29,37
29,38
29,39
29,46
30,32
31,42
32,36
32,37
32,41
33,44
33,49
34,38
35,39
35,40
36,43
37,50
40,45
41,45
42,44
43,45
43,46
43,49
43,50
44,47
44,48
44,50

<end>
